0
Node Left Objective IInf Best_Integer Best_Bound ItCnt Gap
0+ 0 nan nan 17080.7259 -1708.0726 nan 110.00%
0+ 0 nan nan -66.3573 -1708.0726 nan ---
0 0 -93.0816 11 -66.3573 -93.0816 79 40.27%
0+ 0 nan nan -85.7652 -93.0816 nan 8.53%
0 0 -90.7368 13 -85.7652 Cuts:26 98 5.80%
0 0 -90.1366 12 -85.7652 Cuts:17 116 5.10%
0 0 -89.8897 16 -85.7652 Cuts:23 130 4.81%
0 0 -89.7856 17 -85.7652 Cuts:23 143 4.69%
0 0 -89.7049 17 -85.7652 Cuts:24 160 4.59%
0 0 -89.6684 15 -85.7652 Cuts:12 173 4.55%
0 0 -89.6402 15 -85.7652 Cuts:13 186 4.52%
0+ 0 nan nan -86.3037 -89.6402 nan 3.87%
0 0 -89.6133 16 -86.3037 Cuts:16 203 3.83%
0 0 -89.5819 15 -86.3037 Cuts:21 218 3.80%
0 0 -89.5475 15 -86.3037 Cuts:16 224 3.76%
0 0 -89.5310 15 -86.3037 Cuts:15 232 3.74%
0 0 -89.5260 16 -86.3037 Cuts:6 237 3.73%
0 0 -89.4199 13 -86.3037 Cuts:9 247 3.61%
0+ 0 nan nan -87.2074 -89.4199 nan 2.54%
0 0 -89.3882 13 -87.2074 Cuts:9 253 2.50%
0 0 -89.3686 12 -87.2074 Cuts:12 263 2.48%
0 0 -89.3618 13 -87.2074 LiftProj:6 275 2.47%
0 2 -89.1387 9 -87.2074 -89.1387 275 2.21%
CPXPARAM_MIP_Cuts_Gomory-LiftProj-MIRCut:Gomory 2
CPXPARAM_MIP_Cuts_Gomory-LiftProj-MIRCut:LiftProj 12
CPXPARAM_MIP_Cuts_Gomory-LiftProj-MIRCut:MIRCut 1
1
Node Left Objective IInf Best_Integer Best_Bound ItCnt Gap
0+ 0 nan nan 17807.5550 -1780.7555 nan 110.00%
0+ 0 nan nan -246.6070 -1780.7555 nan 622.10%
0 0 -451.0443 22 -246.6070 -451.0443 124 82.90%
0+ 0 nan nan -437.4023 -451.0443 nan 3.12%
0 0 -450.3580 18 -437.4023 Cuts:32 144 2.96%
0+ 0 nan nan -439.5105 -450.3580 nan 2.47%
0 0 -449.9465 17 -439.5105 Cuts:34 161 2.37%
0 0 -449.8236 22 -439.5105 Cuts:33 174 2.35%
0 0 -449.8000 24 -439.5105 Cuts:37 196 2.34%
0+ 0 nan nan -441.2353 -449.8000 nan 1.94%
0 0 -449.7338 24 -441.2353 Cuts:29 214 1.93%
0 0 -449.5928 25 -441.2353 Cuts:38 242 1.89%
0 0 -449.3672 26 -441.2353 Cuts:16 265 1.84%
0 0 -449.1790 27 -441.2353 Cuts:23 289 1.80%
0+ 0 nan nan -442.0528 -449.1790 nan 1.61%
0 0 -449.0786 26 -442.0528 Cuts:14 304 1.59%
0 0 -448.9193 27 -442.0528 LiftProj:12 322 1.55%
0+ 0 nan nan -442.5241 -448.9193 nan 1.45%
0 0 -448.7873 32 -442.5241 Cuts:34 341 1.42%
0 0 -448.4966 29 -442.5241 Cuts:24 365 1.35%
0+ 0 nan nan -444.6720 -448.4966 nan 0.86%
0 0 -448.3461 28 -444.6720 Cuts:15 382 0.83%
0 0 -448.3016 29 -444.6720 Cuts:16 394 0.82%
0 0 -448.2720 30 -444.6720 Cuts:14 404 0.81%
0 2 -447.8480 15 -444.6720 -447.8455 404 0.71%
CPXPARAM_MIP_Cuts_Gomory-LiftProj-MIRCut:Gomory 6
CPXPARAM_MIP_Cuts_Gomory-LiftProj-MIRCut:LiftProj 20
CPXPARAM_MIP_Cuts_Gomory-LiftProj-MIRCut:MIRCut 0
2
Node Left Objective IInf Best_Integer Best_Bound ItCnt Gap
0+ 0 nan nan 21992.9672 -2199.2967 nan 110.00%
0+ 0 nan nan -144.9985 -2199.2967 nan ---
0 0 cutoff -144.9985 -144.9985 77 0.00%
0 0 cutoff -144.9985 -144.9985 77 0.00% 0
CPXPARAM_MIP_Cuts_Gomory-LiftProj-MIRCut:Gomory 0
CPXPARAM_MIP_Cuts_Gomory-LiftProj-MIRCut:LiftProj 0
CPXPARAM_MIP_Cuts_Gomory-LiftProj-MIRCut:MIRCut 0
3
Node Left Objective IInf Best_Integer Best_Bound ItCnt Gap
0+ 0 nan nan 15130.5599 -1513.0560 nan 110.00%
0+ 0 nan nan -319.1991 -1513.0560 nan 374.02%
0 0 -373.2689 13 -319.1991 -373.2689 81 16.94%
0+ 0 nan nan -322.8337 -373.2689 nan 15.62%
0 0 -373.2689 11 -322.8337 Cuts:11 99 15.62%
0 0 -373.1727 18 -322.8337 Cuts:20 112 15.59%
0 0 -373.1015 20 -322.8337 Cuts:19 125 15.57%
0 0 -373.0371 11 -322.8337 Cuts:8 144 15.55%
0 0 -372.9926 14 -322.8337 Cuts:10 154 15.54%
0 0 -372.8630 15 -322.8337 Cuts:10 164 15.50%
0 0 -372.8447 16 -322.8337 Cuts:4 169 15.49%
0 0 -372.7506 15 -322.8337 Cuts:4 177 15.46%
0 0 -372.7052 16 -322.8337 Cuts:4 184 15.45%
0 0 -372.6678 16 -322.8337 Cuts:8 191 15.44%
0 0 -372.6540 16 -322.8337 Cuts:7 196 15.43%
0+ 0 nan nan -371.0358 -372.6540 nan 0.44%
0 0 cutoff -371.0358 -371.0358 219 0.00% 0
CPXPARAM_MIP_Cuts_Gomory-LiftProj-MIRCut:Gomory 4
CPXPARAM_MIP_Cuts_Gomory-LiftProj-MIRCut:LiftProj 8
CPXPARAM_MIP_Cuts_Gomory-LiftProj-MIRCut:MIRCut 7
4
Node Left Objective IInf Best_Integer Best_Bound ItCnt Gap
0+ 0 nan nan 17229.3640 -1722.9364 nan 110.00%
0+ 0 nan nan -67.4145 -1722.9364 nan ---
0 0 -89.1646 11 -67.4145 -89.1646 97 32.26%
0 0 -88.4817 11 -67.4145 Cuts:36 109 31.25%
0+ 0 nan nan -85.5988 -88.4817 nan 3.37%
0 0 -88.2469 9 -85.5988 Cuts:18 120 3.09%
0 0 -88.2012 10 -85.5988 Cuts:22 126 3.04%
0 0 -87.9744 12 -85.5988 Cuts:10 136 2.78%
0 0 -87.8727 11 -85.5988 Cuts:17 145 2.66%
0 0 -87.4518 9 -85.5988 Cuts:13 163 2.16%
0 0 -86.9309 7 -85.5988 Cuts:13 173 1.56%
0 0 -86.8725 7 -85.5988 Cuts:5 180 1.49%
0 0 -86.8584 9 -85.5988 Cuts:6 184 1.47%
0 0 -86.8419 9 -85.5988 Cuts:10 191 1.45%
0 0 -86.7942 10 -85.5988 Cuts:6 198 1.40%
0 0 -86.7603 10 -85.5988 Cuts:10 204 1.36%
0 0 -86.7258 10 -85.5988 LiftProj:6 211 1.32%
0 0 -86.6578 9 -85.5988 Cuts:12 223 1.24%
0 0 -86.6429 9 -85.5988 Cuts:10 233 1.22%
0 0 -86.5375 10 -85.5988 LiftProj:4 245 1.10%
0 0 -86.4365 9 -85.5988 Cuts:8 258 0.98%
0 0 -86.4285 9 -85.5988 Cuts:11 264 0.97%
0 0 -86.4228 10 -85.5988 Cuts:5 267 0.96%
0 2 -86.1535 2 -85.5988 -86.1513 267 0.65%
CPXPARAM_MIP_Cuts_Gomory-LiftProj-MIRCut:Gomory 1
CPXPARAM_MIP_Cuts_Gomory-LiftProj-MIRCut:LiftProj 15
CPXPARAM_MIP_Cuts_Gomory-LiftProj-MIRCut:MIRCut 1
5
Node Left Objective IInf Best_Integer Best_Bound ItCnt Gap
0+ 0 nan nan 19297.4075 -1929.7408 nan 110.00%
0+ 0 nan nan -216.7443 -1929.7408 nan 790.33%
0 0 -495.8139 18 -216.7443 -495.8139 104 128.76%
0+ 0 nan nan -360.6431 -495.8139 nan 37.48%
0 0 -495.2407 22 -360.6431 Cuts:39 123 37.32%
0+ 0 nan nan -363.5780 -495.2407 nan 36.21%
0 0 -495.1427 24 -363.5780 Cuts:37 147 36.19%
0 0 -494.6608 25 -363.5780 Cuts:26 170 36.05%
0 0 -494.4470 25 -363.5780 Cuts:45 193 35.99%
0 0 -494.2291 26 -363.5780 Cuts:31 223 35.93%
0 0 -493.8280 27 -363.5780 Cuts:18 249 35.82%
0 0 -493.6075 23 -363.5780 Cuts:27 272 35.76%
0 0 -493.4120 25 -363.5780 Cuts:21 293 35.71%
0 0 -493.2692 29 -363.5780 Cuts:23 314 35.67%
0 0 -492.9672 30 -363.5780 Cuts:24 342 35.59%
0 0 -492.6558 29 -363.5780 Cuts:21 373 35.50%
0 0 -492.5487 28 -363.5780 Cuts:21 396 35.47%
0 0 -492.4244 27 -363.5780 Cuts:21 421 35.44%
0 0 -492.3586 29 -363.5780 Cuts:21 438 35.42%
0 0 -492.2534 29 -363.5780 Cuts:21 454 35.39%
0 0 -492.1478 32 -363.5780 Cuts:18 477 35.36%
0 0 -492.0460 31 -363.5780 Cuts:19 492 35.33%
0 0 -491.9947 31 -363.5780 Cuts:23 506 35.32%
0+ 0 nan nan -480.8858 -491.9947 nan 2.31%
0+ 0 nan nan -481.5409 -491.9947 nan 2.17%
0 2 -491.9947 31 -481.5409 -491.9505 506 2.16%
CPXPARAM_MIP_Cuts_Gomory-LiftProj-MIRCut:Gomory 11
CPXPARAM_MIP_Cuts_Gomory-LiftProj-MIRCut:LiftProj 20
CPXPARAM_MIP_Cuts_Gomory-LiftProj-MIRCut:MIRCut 0
6
Node Left Objective IInf Best_Integer Best_Bound ItCnt Gap
0+ 0 nan nan 17283.6857 -1728.3686 nan 110.00%
0+ 0 nan nan -89.3561 -1728.3686 nan ---
0 0 -92.8995 6 -89.3561 -92.8995 83 3.97%
0 0 -92.8995 4 -89.3561 Cuts:12 90 3.97%
0+ 0 nan nan -92.7479 -92.8995 nan 0.16%
0 0 -92.8906 10 -92.7479 Fract:1 101 0.15%
0+ 0 nan nan -92.8162 -92.8906 nan 0.08%
0 0 -92.8534 2 -92.8162 Fract:1 112 0.04%
0 0 cutoff -92.8162 -92.8534 120 0.04% 0
CPXPARAM_MIP_Cuts_Gomory-LiftProj-MIRCut:Gomory 0
CPXPARAM_MIP_Cuts_Gomory-LiftProj-MIRCut:LiftProj 0
CPXPARAM_MIP_Cuts_Gomory-LiftProj-MIRCut:MIRCut 2
7
Node Left Objective IInf Best_Integer Best_Bound ItCnt Gap
0+ 0 nan nan 18737.7240 -1873.9213 nan 110.00%
0+ 0 nan nan -349.2878 -1873.9213 nan 436.50%
0 0 -476.7132 19 -349.2878 -476.7132 92 36.48%
0+ 0 nan nan -351.7851 -476.7132 nan 35.51%
0 0 -475.9972 21 -351.7851 Cuts:23 123 35.31%
0 0 -475.5790 23 -351.7851 Cuts:30 139 35.19%
0 0 -475.3476 22 -351.7851 Cuts:34 159 35.12%
0 0 -475.2778 26 -351.7851 Cuts:16 172 35.10%
0 0 -475.1137 22 -351.7851 Cuts:14 192 35.06%
0 0 -474.8427 24 -351.7851 Cuts:30 230 34.98%
0 0 -474.7682 24 -351.7851 Cuts:16 248 34.96%
0 0 -474.4018 25 -351.7851 Cuts:17 282 34.86%
0 0 -474.0276 24 -351.7851 Cuts:29 318 34.75%
0 0 -473.8670 24 -351.7851 Cuts:28 336 34.70%
0 0 -473.7125 26 -351.7851 Cuts:36 369 34.66%
0 0 -473.6660 25 -351.7851 Cuts:14 400 34.65%
0 0 -473.4927 28 -351.7851 Cuts:15 425 34.60%
0 0 -473.4466 26 -351.7851 Cuts:12 450 34.58%
0+ 0 nan nan -470.1406 -473.4466 nan 0.70%
0 2 -473.3799 23 -470.1406 -473.3716 450 0.69%
CPXPARAM_MIP_Cuts_Gomory-LiftProj-MIRCut:Gomory 14
CPXPARAM_MIP_Cuts_Gomory-LiftProj-MIRCut:LiftProj 14
CPXPARAM_MIP_Cuts_Gomory-LiftProj-MIRCut:MIRCut 2
8
Node Left Objective IInf Best_Integer Best_Bound ItCnt Gap
0+ 0 nan nan 20324.0135 -2032.4014 nan 110.00%
0+ 0 nan nan -89.4132 -2032.4014 nan ---
0 0 -103.1383 11 -89.4132 -103.1383 78 15.35%
0 0 -102.3893 7 -89.4132 Cuts:26 98 14.51%
0+ 0 nan nan -100.8155 -102.3893 nan 1.56%
0 0 -102.3368 10 -100.8155 Cuts:17 110 1.51%
0+ 0 nan nan -102.0140 -102.3368 nan 0.32%
0 0 -102.3182 8 -102.0140 Cuts:6 121 0.30%
0 0 -102.3018 7 -102.0140 Cuts:5 131 0.28%
0 0 -102.2892 8 -102.0140 Cuts:11 139 0.27%
0 0 -102.2785 7 -102.0140 Cuts:10 150 0.26%
0 0 -102.2780 7 -102.0140 MIRcuts:2 152 0.26%
0 0 cutoff -102.0140 -102.2780 152 0.26% 0
CPXPARAM_MIP_Cuts_Gomory-LiftProj-MIRCut:Gomory 2
CPXPARAM_MIP_Cuts_Gomory-LiftProj-MIRCut:LiftProj 1
CPXPARAM_MIP_Cuts_Gomory-LiftProj-MIRCut:MIRCut 5
9
Node Left Objective IInf Best_Integer Best_Bound ItCnt Gap
0+ 0 nan nan 19574.3912 -1957.4391 nan 110.00%
0+ 0 nan nan -340.7562 -1957.4391 nan 474.44%
0 0 -481.4397 15 -340.7562 -481.4397 75 41.29%
0+ 0 nan nan -474.2321 -481.4397 nan 1.52%
0 0 -480.5570 16 -474.2321 Cuts:31 96 1.33%
0 0 -480.3074 13 -474.2321 Cuts:33 111 1.28%
0 0 -479.9598 14 -474.2321 Cuts:33 128 1.21%
0 0 -479.8104 20 -474.2321 Cuts:31 149 1.18%
0 0 -479.7513 18 -474.2321 Cuts:32 169 1.16%
0 0 -479.6497 18 -474.2321 Cuts:27 190 1.14%
0+ 0 nan nan -476.4084 -479.6497 nan 0.68%
0 0 -479.6101 13 -476.4084 Cuts:22 203 0.67%
0 0 -479.5915 15 -476.4084 Cuts:13 213 0.67%
0 0 -479.5256 16 -476.4084 Cuts:21 233 0.65%
0 0 -479.2938 21 -476.4084 Cuts:25 254 0.61%
0 0 -479.2601 22 -476.4084 Cuts:42 274 0.60%
0 2 -479.2601 13 -476.4084 -479.2577 274 0.60%
CPXPARAM_MIP_Cuts_Gomory-LiftProj-MIRCut:Gomory 5
CPXPARAM_MIP_Cuts_Gomory-LiftProj-MIRCut:LiftProj 9
CPXPARAM_MIP_Cuts_Gomory-LiftProj-MIRCut:MIRCut 2
10
Node Left Objective IInf Best_Integer Best_Bound ItCnt Gap
0+ 0 nan nan 27187.3215 -2718.7321 nan 110.00%
0+ 0 nan nan 10.9576 -2718.7321 nan ---
0 0 -173.4759 5 10.9576 -173.4759 75 ---
0+ 0 nan nan 7.7729 -173.4759 nan ---
0+ 0 nan nan -171.3795 -173.4759 nan 1.22%
0 0 -173.4759 3 -171.3795 Cuts:10 81 1.22%
0 0 -173.4759 7 -171.3795 Cuts:11 92 1.22%
0 0 -173.4759 5 -171.3795 Cuts:10 102 1.22%
0 2 -173.4759 3 -171.3795 -173.4759 102 1.22%
CPXPARAM_MIP_Cuts_Gomory-LiftProj-MIRCut:Gomory 0
CPXPARAM_MIP_Cuts_Gomory-LiftProj-MIRCut:LiftProj 8
CPXPARAM_MIP_Cuts_Gomory-LiftProj-MIRCut:MIRCut 10
11
Node Left Objective IInf Best_Integer Best_Bound ItCnt Gap
0+ 0 nan nan 22470.7077 -2247.0708 nan 110.00%
0+ 0 nan nan -339.2451 -2247.0708 nan 562.37%
0 0 -573.6242 10 -339.2451 -573.6242 79 69.09%
0+ 0 nan nan -570.2156 -573.6242 nan 0.60%
0 0 -573.6242 13 -570.2156 Cuts:9 94 0.60%
0 0 -573.3081 21 -570.2156 Cuts:20 123 0.54%
0 0 -573.1551 21 -570.2156 Cuts:24 150 0.52%
0 0 -573.0960 24 -570.2156 Cuts:28 168 0.51%
0 0 -572.9973 23 -570.2156 Cuts:18 183 0.49%
0 0 -572.9009 27 -570.2156 Cuts:18 198 0.47%
0 0 -572.6609 19 -570.2156 Cuts:22 224 0.43%
0 0 -572.3310 17 -570.2156 Cuts:34 253 0.37%
0 0 -572.1795 23 -570.2156 Cuts:14 278 0.34%
0+ 0 nan nan -570.3419 -572.1795 nan 0.32%
0 0 -572.1545 22 -570.3419 Cuts:28 296 0.32%
0+ 0 nan nan -570.3419 -572.1545 nan 0.32%
0 0 -571.6682 7 -570.3419 -571.6682 364 0.23%
0 0 -571.3602 9 -570.3419 Cuts:13 385 0.18%
0 0 -571.1466 8 -570.3419 Cuts:8 400 0.14%
0 0 -571.0744 6 -570.3419 Cuts:11 411 0.13%
0 0 -571.0490 7 -570.3419 LiftProj:6 419 0.12%
0 0 -570.9398 9 -570.3419 LiftProj:6 429 0.10%
0 0 -570.8736 6 -570.3419 LiftProj:6 438 0.09%
0 0 -570.8336 5 -570.3419 LiftProj:5 442 0.09%
0 0 -570.7706 6 -570.3419 Cuts:6 454 0.08%
0 0 -570.5986 7 -570.3419 Cuts:6 462 0.05%
0 0 -570.5716 6 -570.3419 LiftProj:4 470 0.04%
0 2 -570.5416 3 -570.3419 -570.5337 470 0.03%
CPXPARAM_MIP_Cuts_Gomory-LiftProj-MIRCut:Gomory 0
CPXPARAM_MIP_Cuts_Gomory-LiftProj-MIRCut:LiftProj 12
CPXPARAM_MIP_Cuts_Gomory-LiftProj-MIRCut:MIRCut 1
12
Node Left Objective IInf Best_Integer Best_Bound ItCnt Gap
0+ 0 nan nan 21290.0070 -2129.0007 nan 110.00%
0+ 0 nan nan -108.2542 -2129.0007 nan ---
0 0 -125.5769 9 -108.2542 -125.5769 93 16.00%
0+ 0 nan nan -118.3639 -125.5769 nan 6.09%
0 0 -124.7545 11 -118.3639 Cuts:22 108 5.40%
0 0 -124.5555 12 -118.3639 Cuts:25 123 5.23%
0 0 -124.0743 12 -118.3639 Cuts:23 138 4.82%
0 0 -123.7913 12 -118.3639 Cuts:18 154 4.59%
0 0 -123.6061 13 -118.3639 Cuts:18 166 4.43%
0 0 -123.5596 13 -118.3639 Cuts:12 174 4.39%
0 0 -123.3766 12 -118.3639 Cuts:10 187 4.23%
0 0 -123.1234 13 -118.3639 Cuts:10 196 4.02%
0 0 -123.0223 13 -118.3639 Cuts:21 219 3.94%
0 0 -123.0133 18 -118.3639 Cuts:37 234 3.93%
0 0 -122.9946 15 -118.3639 Cuts:11 246 3.91%
0 0 -122.9836 15 -118.3639 Cuts:11 251 3.90%
0+ 0 nan nan -118.7391 -122.9836 nan 3.57%
0+ 0 nan nan -121.2111 -122.9836 nan 1.46%
0 2 -122.7426 10 -121.2111 -122.7051 251 1.23%
CPXPARAM_MIP_Cuts_Gomory-LiftProj-MIRCut:Gomory 3
CPXPARAM_MIP_Cuts_Gomory-LiftProj-MIRCut:LiftProj 11
CPXPARAM_MIP_Cuts_Gomory-LiftProj-MIRCut:MIRCut 3
13
Node Left Objective IInf Best_Integer Best_Bound ItCnt Gap
0+ 0 nan nan 18711.1828 -1871.1183 nan 110.00%
0+ 0 nan nan -86.7463 -1871.1183 nan ---
0 0 -468.4244 16 -86.7463 -468.4244 90 439.99%
0+ 0 nan nan -462.1230 -468.4244 nan 1.36%
0 0 -468.0088 21 -462.1230 Cuts:34 110 1.27%
0 0 -467.4900 18 -462.1230 Cuts:41 133 1.16%
0 0 -467.3734 22 -462.1230 Cuts:33 159 1.14%
0 0 -467.3583 24 -462.1230 Cuts:36 181 1.13%
0 0 -467.3392 28 -462.1230 Cuts:36 208 1.13%
0 2 -467.3392 25 -462.1230 -467.3352 208 1.13%
CPXPARAM_MIP_Cuts_Gomory-LiftProj-MIRCut:Gomory 4
CPXPARAM_MIP_Cuts_Gomory-LiftProj-MIRCut:LiftProj 3
CPXPARAM_MIP_Cuts_Gomory-LiftProj-MIRCut:MIRCut 13
14
Node Left Objective IInf Best_Integer Best_Bound ItCnt Gap
0+ 0 nan nan 22739.1838 -2273.9184 nan 110.00%
0+ 0 nan nan -144.2844 -2273.9184 nan ---
0 0 -146.9071 10 -144.2844 -146.9071 80 1.82%
0 0 -146.8581 6 -144.2844 Cuts:12 85 1.78%
0 0 -146.7176 8 -144.2844 Cuts:21 97 1.69%
0 0 -146.7176 5 -144.2844 Cuts:16 105 1.69%
0+ 0 nan nan -145.9432 -146.7176 nan 0.53%
0 0 -146.7176 7 -145.9432 Cuts:8 111 0.53%
0 0 -146.7066 11 -145.9432 Cuts:8 121 0.52%
0+ 0 nan nan -146.6955 -146.7066 nan 0.01%
CPXPARAM_MIP_Cuts_Gomory-LiftProj-MIRCut:Gomory 1
CPXPARAM_MIP_Cuts_Gomory-LiftProj-MIRCut:LiftProj 5
CPXPARAM_MIP_Cuts_Gomory-LiftProj-MIRCut:MIRCut 9
15
Node Left Objective IInf Best_Integer Best_Bound ItCnt Gap
0+ 0 nan nan 20293.1236 -2029.3124 nan 110.00%
0+ 0 nan nan -243.7454 -2029.3124 nan 732.55%
0 0 -518.7322 13 -243.7454 -518.7322 83 112.82%
0+ 0 nan nan -315.8010 -518.7322 nan 64.26%
0+ 0 nan nan -450.6273 -518.7322 nan 15.11%
0 0 -518.6226 21 -450.6273 Cuts:36 121 15.09%
0 0 -518.4350 22 -450.6273 Cuts:47 139 15.05%
0 0 -518.2543 19 -450.6273 Cuts:31 162 15.01%
0 0 -518.0907 24 -450.6273 Cuts:19 176 14.97%
0 0 -518.0053 18 -450.6273 Cuts:14 198 14.95%
0 0 -517.9470 22 -450.6273 Cuts:16 217 14.94%
0 0 -517.9257 22 -450.6273 Cuts:5 225 14.93%
0 0 -517.7891 22 -450.6273 Cuts:22 249 14.90%
0 0 -517.7226 24 -450.6273 Cuts:7 264 14.89%
0 0 -517.6303 26 -450.6273 Cuts:18 283 14.87%
0 0 -517.5826 24 -450.6273 Cuts:9 294 14.86%
0+ 0 nan nan -514.3124 -517.5826 nan 0.64%
0+ 0 nan nan -514.4241 -517.5826 nan 0.61%
0+ 0 nan nan -514.4241 -517.5826 nan 0.61%
0 0 -516.5497 7 -514.4241 -516.5497 364 0.41%
0 0 -515.7788 10 -514.4241 Cuts:17 381 0.26%
0 0 -515.6274 10 -514.4241 Cuts:11 400 0.23%
0 0 -515.4544 11 -514.4241 Cuts:18 418 0.20%
0 0 -515.2746 8 -514.4241 Cuts:12 430 0.17%
0 0 -515.1393 11 -514.4241 Cuts:10 442 0.14%
0 0 -515.1393 8 -514.4241 Cuts:13 445 0.14%
0 0 -515.1194 11 -514.4241 Cuts:8 450 0.14%
0 0 cutoff -514.4241 -515.1194 450 0.14% 0
CPXPARAM_MIP_Cuts_Gomory-LiftProj-MIRCut:Gomory 3
CPXPARAM_MIP_Cuts_Gomory-LiftProj-MIRCut:LiftProj 11
CPXPARAM_MIP_Cuts_Gomory-LiftProj-MIRCut:MIRCut 1
16
Node Left Objective IInf Best_Integer Best_Bound ItCnt Gap
0+ 0 nan nan 21872.1954 -2187.2195 nan 110.00%
0+ 0 nan nan -112.2220 -2187.2195 nan ---
0 0 -126.4787 11 -112.2220 -126.4787 89 12.70%
0 0 -126.1346 12 -112.2220 Cuts:26 103 12.40%
0+ 0 nan nan -124.3570 -126.1346 nan 1.43%
0 0 -126.0664 13 -124.3570 Cuts:22 114 1.37%
0 0 -125.8629 14 -124.3570 Cuts:18 127 1.21%
0 0 -125.8052 13 -124.3570 Cuts:17 135 1.16%
0 0 -125.7736 13 -124.3570 Cuts:9 147 1.14%
0 0 -125.7736 16 -124.3570 Cuts:11 154 1.14%
0 0 -125.7697 17 -124.3570 Cuts:16 163 1.14%
0+ 0 nan nan -125.0522 -125.7697 nan 0.57%
0 2 -125.7233 8 -125.0522 -125.7233 163 0.54%
CPXPARAM_MIP_Cuts_Gomory-LiftProj-MIRCut:Gomory 0
CPXPARAM_MIP_Cuts_Gomory-LiftProj-MIRCut:LiftProj 4
CPXPARAM_MIP_Cuts_Gomory-LiftProj-MIRCut:MIRCut 4
17
Node Left Objective IInf Best_Integer Best_Bound ItCnt Gap
0+ 0 nan nan 16639.6111 -1663.9611 nan 110.00%
0+ 0 nan nan -399.5270 -1663.9611 nan 316.48%
0 0 -404.1656 14 -399.5270 -404.1656 83 1.16%
0 0 -403.4476 15 -399.5270 Cuts:25 113 0.98%
0 0 -403.3149 17 -399.5270 Cuts:24 131 0.95%
0 0 -403.2393 18 -399.5270 Cuts:20 158 0.93%
0 0 -403.1520 18 -399.5270 Cuts:22 174 0.91%
0 0 -403.1249 21 -399.5270 Cuts:19 193 0.90%
0 0 -403.0362 19 -399.5270 Cuts:26 217 0.88%
0 0 -402.7492 16 -399.5270 Cuts:14 236 0.81%
0+ 0 nan nan -400.0492 -402.7492 nan 0.67%
0 0 -402.6665 16 -400.0492 Cuts:23 258 0.65%
0+ 0 nan nan -400.1632 -402.6665 nan 0.63%
0 0 -402.6075 18 -400.1632 Cuts:17 278 0.61%
0+ 0 nan nan -400.6659 -402.6075 nan 0.48%
0 0 -402.5674 18 -400.6659 Cuts:23 297 0.47%
0 0 -402.5649 13 -400.6659 Cuts:16 309 0.47%
0 2 -402.5649 14 -400.6659 -402.5597 309 0.47%
CPXPARAM_MIP_Cuts_Gomory-LiftProj-MIRCut:Gomory 2
CPXPARAM_MIP_Cuts_Gomory-LiftProj-MIRCut:LiftProj 9
CPXPARAM_MIP_Cuts_Gomory-LiftProj-MIRCut:MIRCut 6
18
Node Left Objective IInf Best_Integer Best_Bound ItCnt Gap
0+ 0 nan nan 18821.9021 -1882.1902 nan 110.00%
0+ 0 nan nan -97.2991 -1882.1902 nan ---
0 0 -99.0172 8 -97.2991 -99.0172 77 1.77%
0 0 -99.0172 6 -97.2991 Cuts:19 90 1.77%
0 0 -99.0161 13 -97.2991 Cuts:13 99 1.76%
0 0 -99.0035 4 -97.2991 Cuts:6 105 1.75%
0+ 0 nan nan -98.9995 -99.0035 nan 0.00%
CPXPARAM_MIP_Cuts_Gomory-LiftProj-MIRCut:Gomory 0
CPXPARAM_MIP_Cuts_Gomory-LiftProj-MIRCut:LiftProj 6
CPXPARAM_MIP_Cuts_Gomory-LiftProj-MIRCut:MIRCut 9
19
Node Left Objective IInf Best_Integer Best_Bound ItCnt Gap
0+ 0 nan nan 19012.1137 -1901.2740 nan 110.00%
0+ 0 nan nan -411.3325 -1901.2740 nan 362.22%
0 0 -474.7865 8 -411.3325 -474.7865 76 15.43%
0+ 0 nan nan -411.4107 -474.7865 nan 15.40%
0+ 0 nan nan -472.5175 -474.7865 nan 0.48%
0 0 -474.7865 5 -472.5175 Cuts:12 90 0.48%
0+ 0 nan nan -473.4153 -474.7865 nan 0.29%
0 0 -474.7865 5 -473.4153 Cuts:9 99 0.29%
0 0 -474.7796 6 -473.4153 Cuts:9 105 0.29%
0+ 0 nan nan -474.7791 -474.7796 nan 0.00%
CPXPARAM_MIP_Cuts_Gomory-LiftProj-MIRCut:Gomory 1
CPXPARAM_MIP_Cuts_Gomory-LiftProj-MIRCut:LiftProj 0
CPXPARAM_MIP_Cuts_Gomory-LiftProj-MIRCut:MIRCut 11
20
Node Left Objective IInf Best_Integer Best_Bound ItCnt Gap
0+ 0 nan nan 15115.0246 -1511.5025 nan 110.00%
0+ 0 nan nan -66.4447 -1511.5025 nan ---
0 0 -90.2455 12 -66.4447 -90.2455 91 35.82%
0 0 -89.5533 13 -66.4447 Cuts:29 104 34.78%
0+ 0 nan nan -88.1244 -89.5533 nan 1.62%
0 0 -89.1611 11 -88.1244 Cuts:28 121 1.18%
0 0 -88.9582 12 -88.1244 Cuts:19 137 0.95%
0 0 -88.9027 12 -88.1244 Cuts:12 150 0.88%
0 0 -88.7905 12 -88.1244 Cuts:14 166 0.76%
0 0 -88.7564 11 -88.1244 Cuts:20 176 0.72%
0 0 -88.7243 10 -88.1244 Cuts:10 183 0.68%
0 0 -88.5771 11 -88.1244 Cuts:6 195 0.51%
0 0 -88.3561 5 -88.1244 Cuts:5 211 0.26%
0 0 -88.2393 3 -88.1244 Cuts:3 223 0.13%
0 0 -88.2169 3 -88.1244 MIRcuts:2 230 0.11%
CPXPARAM_MIP_Cuts_Gomory-LiftProj-MIRCut:Gomory 0
CPXPARAM_MIP_Cuts_Gomory-LiftProj-MIRCut:LiftProj 0
CPXPARAM_MIP_Cuts_Gomory-LiftProj-MIRCut:MIRCut 1
21
Node Left Objective IInf Best_Integer Best_Bound ItCnt Gap
0+ 0 nan nan 15333.4248 -1533.3425 nan 110.00%
0+ 0 nan nan -221.9629 -1533.3425 nan 590.81%
0 0 -397.2126 26 -221.9629 -397.2126 110 78.95%
0+ 0 nan nan -235.8252 -397.2126 nan 68.44%
0 0 -395.5607 29 -235.8252 Cuts:23 128 67.73%
0+ 0 nan nan -240.6087 -395.5607 nan 64.40%
0 0 -394.7546 27 -240.6087 Cuts:37 145 64.06%
0 0 -394.3872 27 -240.6087 Cuts:42 171 63.91%
0+ 0 nan nan -282.4646 -394.3872 nan 39.62%
0 0 -394.0208 30 -282.4646 Cuts:40 203 39.49%
0+ 0 nan nan -283.9726 -394.0208 nan 38.75%
0 0 -393.4851 32 -283.9726 Cuts:36 240 38.56%
0 0 -393.1179 33 -283.9726 Cuts:31 271 38.44%
0 0 -392.4700 29 -283.9726 Cuts:31 304 38.21%
0+ 0 nan nan -287.3779 -392.4700 nan 36.57%
0 0 -392.3257 33 -287.3779 Cuts:24 324 36.52%
0 0 -391.9490 30 -287.3779 Cuts:36 345 36.39%
0 0 -391.6391 32 -287.3779 Cuts:32 372 36.28%
0+ 0 nan nan -332.5226 -391.6391 nan 17.78%
0 0 -391.5631 33 -332.5226 Cuts:20 389 17.76%
0 0 -391.3983 33 -332.5226 Cuts:23 412 17.71%
0+ 0 nan nan -336.4258 -391.3983 nan 16.34%
0 0 -391.2048 32 -336.4258 Cuts:28 434 16.28%
0 0 -390.8863 33 -336.4258 Cuts:27 461 16.19%
0 0 -390.8068 33 -336.4258 Cuts:20 477 16.16%
0 0 -390.7852 34 -336.4258 Cuts:19 495 16.16%
0 0 -390.7199 35 -336.4258 Cuts:27 521 16.14%
0+ 0 nan nan -384.2561 -390.7199 nan 1.68%
0 2 -390.6872 34 -384.2561 -390.6794 521 1.67%
CPXPARAM_MIP_Cuts_Gomory-LiftProj-MIRCut:Gomory 12
CPXPARAM_MIP_Cuts_Gomory-LiftProj-MIRCut:LiftProj 25
CPXPARAM_MIP_Cuts_Gomory-LiftProj-MIRCut:MIRCut 0
22
Node Left Objective IInf Best_Integer Best_Bound ItCnt Gap
0+ 0 nan nan 15579.5689 -1557.9569 nan 110.00%
0+ 0 nan nan -75.9857 -1557.9569 nan ---
0 0 -96.9770 4 -75.9857 -96.9770 80 27.63%
0+ 0 nan nan -96.9770 -96.9770 nan 0.00%
0 0 cutoff -96.9770 -96.9770 80 0.00% 0
CPXPARAM_MIP_Cuts_Gomory-LiftProj-MIRCut:Gomory 0
CPXPARAM_MIP_Cuts_Gomory-LiftProj-MIRCut:LiftProj 0
CPXPARAM_MIP_Cuts_Gomory-LiftProj-MIRCut:MIRCut 0
23
Node Left Objective IInf Best_Integer Best_Bound ItCnt Gap
0+ 0 nan nan 16097.8588 -1609.8715 nan 110.00%
0+ 0 nan nan -135.1706 -1609.8715 nan ---
0 0 -420.0439 21 -135.1706 -420.0439 92 210.75%
0+ 0 nan nan -205.3944 -420.0439 nan 104.51%
0+ 0 nan nan -308.1357 -420.0439 nan 36.32%
0 0 -418.3025 23 -308.1357 Cuts:19 119 35.75%
0 0 -416.9061 20 -308.1357 Cuts:41 145 35.30%
0+ 0 nan nan -357.9711 -416.9061 nan 16.46%
0 0 -416.2486 26 -357.9711 Cuts:32 170 16.28%
0+ 0 nan nan -358.0706 -416.2486 nan 16.25%
0 0 -415.7524 25 -358.0706 Cuts:35 203 16.11%
0 0 -415.2761 28 -358.0706 Cuts:28 237 15.98%
0 0 -415.0397 29 -358.0706 Cuts:34 262 15.91%
0+ 0 nan nan -358.4787 -415.0397 nan 15.78%
0 0 -414.7916 30 -358.4787 Cuts:34 287 15.71%
0+ 0 nan nan -358.6380 -414.7916 nan 15.66%
0 0 -414.3003 28 -358.6380 Cuts:26 317 15.52%
0 0 -414.0332 30 -358.6380 Cuts:24 344 15.45%
0 0 -413.8976 28 -358.6380 Cuts:25 370 15.41%
0 0 -413.6063 28 -358.6380 Cuts:22 403 15.33%
0 0 -413.4919 29 -358.6380 Cuts:32 432 15.30%
0+ 0 nan nan -358.7863 -413.4919 nan 15.25%
0 0 -413.4322 29 -358.7863 Cuts:27 455 15.23%
0 0 -413.3854 28 -358.7863 Cuts:17 471 15.22%
0 0 -413.2819 28 -358.7863 Cuts:21 492 15.19%
0 0 -413.2399 28 -358.7863 Cuts:15 510 15.18%
0+ 0 nan nan -408.6234 -413.2399 nan 1.13%
0 2 -413.2399 28 -408.6234 -413.2375 510 1.13%
CPXPARAM_MIP_Cuts_Gomory-LiftProj-MIRCut:Gomory 10
CPXPARAM_MIP_Cuts_Gomory-LiftProj-MIRCut:LiftProj 23
CPXPARAM_MIP_Cuts_Gomory-LiftProj-MIRCut:MIRCut 0
24
Node Left Objective IInf Best_Integer Best_Bound ItCnt Gap
0+ 0 nan nan 18436.4445 -1843.6444 nan 110.00%
0+ 0 nan nan -94.2493 -1843.6444 nan ---
0 0 -115.3546 13 -94.2493 -115.3546 85 22.39%
0+ 0 nan nan -112.0044 -115.3546 nan 2.99%
0 0 -114.6626 7 -112.0044 Cuts:22 98 2.37%
0 0 -114.1821 9 -112.0044 Cuts:16 117 1.94%
0 0 -113.9793 7 -112.0044 Cuts:13 131 1.76%
0 0 -113.7629 9 -112.0044 Cuts:11 147 1.57%
0 0 -113.7538 9 -112.0044 Cuts:12 154 1.56%
0 0 -113.7053 8 -112.0044 Cuts:15 167 1.52%
0 0 -113.5694 8 -112.0044 Cuts:10 181 1.40%
0 0 -113.5336 9 -112.0044 Cuts:10 193 1.37%
0 0 -113.4269 9 -112.0044 Cuts:9 212 1.27%
0 0 -113.3057 7 -112.0044 Cuts:11 222 1.16%
0 0 -113.2202 8 -112.0044 LiftProj:6 229 1.09%
0 0 -113.1024 9 -112.0044 LiftProj:6 240 0.98%
0 0 -112.9182 9 -112.0044 Cuts:11 257 0.82%
0 0 -112.8624 8 -112.0044 Cuts:8 267 0.77%
0 0 -112.8329 9 -112.0044 LiftProj:5 273 0.74%
0 0 -112.8098 9 -112.0044 Cuts:6 280 0.72%
0 0 -112.7937 9 -112.0044 Cuts:5 289 0.70%
0 0 -112.7916 9 -112.0044 Cuts:6 292 0.70%
0 2 -112.5545 3 -112.0044 -112.5442 292 0.48%
CPXPARAM_MIP_Cuts_Gomory-LiftProj-MIRCut:Gomory 3
CPXPARAM_MIP_Cuts_Gomory-LiftProj-MIRCut:LiftProj 11
CPXPARAM_MIP_Cuts_Gomory-LiftProj-MIRCut:MIRCut 0
25
Node Left Objective IInf Best_Integer Best_Bound ItCnt Gap
0+ 0 nan nan 18806.7169 -1880.6717 nan 110.00%
0+ 0 nan nan -288.0183 -1880.6717 nan 552.97%
0 0 -492.8236 25 -288.0183 -492.8236 100 71.11%
0+ 0 nan nan -362.9258 -492.8236 nan 35.79%
0 0 -489.7464 28 -362.9258 Cuts:29 137 34.94%
0 0 -489.0832 27 -362.9258 Cuts:28 160 34.76%
0 0 -488.8340 30 -362.9258 Cuts:33 181 34.69%
0 0 -488.5768 33 -362.9258 Cuts:33 212 34.62%
0 0 -488.3173 29 -362.9258 Cuts:28 240 34.55%
0 0 -488.0612 30 -362.9258 Cuts:10 260 34.48%
0 0 -487.8771 29 -362.9258 Cuts:29 281 34.43%
0 0 -487.8482 30 -362.9258 Cuts:30 291 34.42%
0 0 -487.7828 32 -362.9258 Cuts:18 308 34.40%
0 0 -487.7511 34 -362.9258 Cuts:24 325 34.39%
0+ 0 nan nan -478.7246 -487.7511 nan 1.89%
0 2 -487.7511 34 -478.7246 -487.7395 325 1.88%
CPXPARAM_MIP_Cuts_Gomory-LiftProj-MIRCut:Gomory 7
CPXPARAM_MIP_Cuts_Gomory-LiftProj-MIRCut:LiftProj 14
CPXPARAM_MIP_Cuts_Gomory-LiftProj-MIRCut:MIRCut 4
26
Node Left Objective IInf Best_Integer Best_Bound ItCnt Gap
0+ 0 nan nan 18555.8907 -1855.7233 nan 110.00%
0+ 0 nan nan -104.0034 -1855.7233 nan ---
0 0 -115.9815 5 -104.0034 -115.9815 67 11.52%
0+ 0 nan nan -115.9815 -115.9815 nan 0.00%
0 0 cutoff -115.9815 -115.9815 67 0.00% 0
CPXPARAM_MIP_Cuts_Gomory-LiftProj-MIRCut:Gomory 0
CPXPARAM_MIP_Cuts_Gomory-LiftProj-MIRCut:LiftProj 0
CPXPARAM_MIP_Cuts_Gomory-LiftProj-MIRCut:MIRCut 0
27
Node Left Objective IInf Best_Integer Best_Bound ItCnt Gap
0+ 0 nan nan 17101.2086 -1710.7893 nan 110.00%
0+ 0 nan nan -257.8104 -1710.7893 nan 563.58%
0 0 -441.6815 19 -257.8104 -441.6815 93 71.32%
0+ 0 nan nan -327.4274 -441.6815 nan 34.89%
0 0 -439.8182 23 -327.4274 Cuts:21 119 34.33%
0 0 -438.9480 20 -327.4274 Cuts:22 145 34.06%
0+ 0 nan nan -327.5556 -438.9480 nan 34.01%
0 0 -438.4027 24 -327.5556 Cuts:14 164 33.84%
0 0 -438.0405 24 -327.5556 Cuts:45 190 33.73%
0 0 -437.8095 25 -327.5556 Cuts:27 217 33.66%
0 0 -437.6264 27 -327.5556 Cuts:17 245 33.60%
0 0 -437.3914 24 -327.5556 Cuts:22 281 33.53%
0 0 -437.2667 26 -327.5556 Cuts:28 302 33.49%
0+ 0 nan nan -327.6314 -437.2667 nan 33.46%
0 0 -437.0283 23 -327.6314 Cuts:26 322 33.39%
0 0 -436.9756 27 -327.6314 Cuts:17 341 33.37%
0 0 -436.8230 24 -327.6314 Cuts:28 381 33.33%
0 0 -436.6203 25 -327.6314 Cuts:20 412 33.27%
0 0 -436.5863 23 -327.6314 Cuts:25 426 33.26%
0 0 -436.5770 24 -327.6314 Cuts:12 436 33.25%
0+ 0 nan nan -380.6466 -436.5770 nan 14.69%
0+ 0 nan nan -431.0322 -436.5770 nan 1.29%
0+ 0 nan nan -432.2617 -436.5770 nan 1.00%
0 2 -436.5770 24 -432.2617 -436.5652 436 1.00%
CPXPARAM_MIP_Cuts_Gomory-LiftProj-MIRCut:Gomory 12
CPXPARAM_MIP_Cuts_Gomory-LiftProj-MIRCut:LiftProj 11
CPXPARAM_MIP_Cuts_Gomory-LiftProj-MIRCut:MIRCut 2
28
Node Left Objective IInf Best_Integer Best_Bound ItCnt Gap
0+ 0 nan nan 23195.9038 -2319.5904 nan 110.00%
0+ 0 nan nan -104.6712 -2319.5904 nan ---
0 0 -120.0533 11 -104.6712 -120.0533 77 14.70%
0 0 -119.2335 11 -104.6712 Cuts:29 93 13.91%
0+ 0 nan nan -115.2003 -119.2335 nan 3.50%
0 0 -119.0115 11 -115.2003 Cuts:18 111 3.31%
0 0 -118.6579 11 -115.2003 Cuts:12 124 3.00%
0 0 -118.6036 10 -115.2003 Cuts:16 135 2.95%
0+ 0 nan nan -117.2287 -118.6036 nan 1.17%
0 0 -118.5653 10 -117.2287 Cuts:5 141 1.14%
0 0 -118.5202 10 -117.2287 Cuts:10 155 1.10%
0 0 -118.5033 11 -117.2287 Cuts:7 160 1.09%
0 0 -118.4968 11 -117.2287 LiftProj:5 166 1.08%
0 0 -118.4755 12 -117.2287 Cuts:9 182 1.06%
0 0 -118.4593 13 -117.2287 Cuts:9 190 1.05%
0 0 -118.3979 12 -117.2287 LiftProj:7 204 1.00%
0 0 -118.3798 13 -117.2287 Cuts:8 210 0.98%
0 0 -118.3514 11 -117.2287 Cuts:10 220 0.96%
0 0 -118.3150 10 -117.2287 Cuts:5 228 0.93%
0 0 -118.2762 11 -117.2287 Cuts:6 235 0.89%
0 0 -118.2618 11 -117.2287 LiftProj:7 239 0.88%
0 2 -118.0128 5 -117.2287 -117.9846 239 0.64%
CPXPARAM_MIP_Cuts_Gomory-LiftProj-MIRCut:Gomory 0
CPXPARAM_MIP_Cuts_Gomory-LiftProj-MIRCut:LiftProj 15
CPXPARAM_MIP_Cuts_Gomory-LiftProj-MIRCut:MIRCut 0
29
Node Left Objective IInf Best_Integer Best_Bound ItCnt Gap
0+ 0 nan nan 18473.6572 -1847.3657 nan 110.00%
0+ 0 nan nan -427.6235 -1847.3657 nan 332.01%
0 0 -444.7353 17 -427.6235 -444.7353 96 4.00%
0 0 -444.0203 17 -427.6235 Cuts:32 124 3.83%
0 0 -443.6408 20 -427.6235 Cuts:36 138 3.75%
0 0 -443.4347 19 -427.6235 Cuts:31 158 3.70%
0 0 -443.3209 22 -427.6235 Cuts:28 191 3.67%
0 0 -443.2993 21 -427.6235 Cuts:33 209 3.67%
0 0 -443.2708 7 -427.6235 Cuts:12 216 3.66%
0+ 0 nan nan -441.1131 -443.2708 nan 0.49%
0 0 -443.2071 8 -441.1131 Cuts:8 222 0.47%
0 0 -442.9558 8 -441.1131 Cuts:10 236 0.42%
0 0 -442.8809 8 -441.1131 Cuts:7 243 0.40%
0+ 0 nan nan -441.1471 -442.8809 nan 0.39%
0 0 -442.8513 7 -441.1471 Cuts:6 246 0.39%
0 2 -442.4884 6 -441.1471 -442.4763 246 0.30%
CPXPARAM_MIP_Cuts_Gomory-LiftProj-MIRCut:Gomory 2
CPXPARAM_MIP_Cuts_Gomory-LiftProj-MIRCut:LiftProj 7
CPXPARAM_MIP_Cuts_Gomory-LiftProj-MIRCut:MIRCut 1
30
Node Left Objective IInf Best_Integer Best_Bound ItCnt Gap
0+ 0 nan nan 20012.4297 -2001.2537 nan 110.00%
0+ 0 nan nan -82.7793 -2001.2537 nan ---
0 0 -93.4019 2 -82.7793 -93.4019 66 12.83%
0+ 0 nan nan -93.4019 -93.4019 nan 0.00%
CPXPARAM_MIP_Cuts_Gomory-LiftProj-MIRCut:Gomory 0
CPXPARAM_MIP_Cuts_Gomory-LiftProj-MIRCut:LiftProj 0
CPXPARAM_MIP_Cuts_Gomory-LiftProj-MIRCut:MIRCut 0
31
Node Left Objective IInf Best_Integer Best_Bound ItCnt Gap
0+ 0 nan nan 20469.5526 -2046.9553 nan 110.00%
0+ 0 nan nan -497.9458 -2046.9553 nan 311.08%
0 0 -506.7396 12 -497.9458 -506.7396 92 1.77%
0+ 0 nan nan -501.8232 -506.7396 nan 0.98%
0 0 -506.7114 5 -501.8232 Cuts:4 105 0.97%
0+ 0 nan nan -506.6867 -506.7114 nan 0.00%
CPXPARAM_MIP_Cuts_Gomory-LiftProj-MIRCut:Gomory 0
CPXPARAM_MIP_Cuts_Gomory-LiftProj-MIRCut:LiftProj 0
CPXPARAM_MIP_Cuts_Gomory-LiftProj-MIRCut:MIRCut 2
32
Node Left Objective IInf Best_Integer Best_Bound ItCnt Gap
0+ 0 nan nan 13911.0729 -1391.1073 nan 110.00%
0+ 0 nan nan -39.6136 -1391.1073 nan ---
0 0 -68.2827 6 -39.6136 -68.2827 77 72.37%
0+ 0 nan nan -65.9578 -68.2827 nan 3.52%
0 0 -66.4980 6 -65.9578 Fract:1 86 0.82%
0 0 cutoff -65.9578 99 0.00% 0 0
CPXPARAM_MIP_Cuts_Gomory-LiftProj-MIRCut:Gomory 0
CPXPARAM_MIP_Cuts_Gomory-LiftProj-MIRCut:LiftProj 0
CPXPARAM_MIP_Cuts_Gomory-LiftProj-MIRCut:MIRCut 0
33
Node Left Objective IInf Best_Integer Best_Bound ItCnt Gap
0+ 0 nan nan 16748.4512 -1674.8451 nan 110.00%
0+ 0 nan nan -180.4833 -1674.8451 nan 827.98%
0 0 -425.8102 14 -180.4833 -425.8102 120 135.93%
0+ 0 nan nan -362.2668 -425.8102 nan 17.54%
0 0 -425.0066 20 -362.2668 Cuts:30 144 17.32%
0 0 -424.7658 29 -362.2668 Cuts:48 177 17.25%
0 0 -424.4035 26 -362.2668 Cuts:37 201 17.15%
0 0 -423.9646 31 -362.2668 Cuts:41 231 17.03%
0 0 -423.5082 31 -362.2668 Cuts:39 271 16.91%
0 0 -423.3995 31 -362.2668 Cuts:25 288 16.88%
0 0 -423.1406 29 -362.2668 Cuts:30 312 16.80%
0 0 -423.0610 30 -362.2668 Cuts:37 338 16.78%
0 0 -422.9485 31 -362.2668 Cuts:21 358 16.75%
0+ 0 nan nan -363.1089 -422.9485 nan 16.48%
0 0 -422.8855 33 -363.1089 Cuts:25 385 16.46%
0 0 -422.8435 33 -363.1089 Cuts:25 398 16.45%
0 0 -422.8117 33 -363.1089 Cuts:28 414 16.44%
0+ 0 nan nan -417.2537 -422.8117 nan 1.33%
0 2 -422.8069 32 -417.2537 -422.8060 414 1.33%
CPXPARAM_MIP_Cuts_Gomory-LiftProj-MIRCut:Gomory 8
CPXPARAM_MIP_Cuts_Gomory-LiftProj-MIRCut:LiftProj 22
CPXPARAM_MIP_Cuts_Gomory-LiftProj-MIRCut:MIRCut 2
34
Node Left Objective IInf Best_Integer Best_Bound ItCnt Gap
0+ 0 nan nan 19055.0102 -1905.5010 nan 110.00%
0+ 0 nan nan -113.0294 -1905.5010 nan ---
0 0 -121.1718 5 -113.0294 -121.1718 75 7.20%
0+ 0 nan nan -117.8797 -121.1718 nan 2.79%
0 0 -121.1718 10 -117.8797 Cuts:12 92 2.79%
0+ 0 nan nan -119.8794 -121.1718 nan 1.08%
0 0 -121.1551 11 -119.8794 Fract:3 105 1.06%
0 0 -121.0629 12 -119.8794 Cuts:12 112 0.99%
0+ 0 nan nan -120.8524 -121.0629 nan 0.17%
0 0 -120.9145 3 -120.8524 Cuts:2 126 0.05%
0+ 0 nan nan -120.8524 -120.9145 nan 0.05%
0 0 -120.9145 3 -120.8524 -120.9145 199 0.05%
0 0 cutoff -120.8524 205 0.00% 0 0
CPXPARAM_MIP_Cuts_Gomory-LiftProj-MIRCut:Gomory 0
CPXPARAM_MIP_Cuts_Gomory-LiftProj-MIRCut:LiftProj 1
CPXPARAM_MIP_Cuts_Gomory-LiftProj-MIRCut:MIRCut 2
35
Node Left Objective IInf Best_Integer Best_Bound ItCnt Gap
0+ 0 nan nan 16780.9114 -1678.3241 nan 110.00%
0+ 0 nan nan -187.6361 -1678.3241 nan 794.46%
0 0 -420.9670 14 -187.6361 -420.9670 75 124.35%
0+ 0 nan nan -253.1346 -420.9670 nan 66.30%
0+ 0 nan nan -417.9530 -420.9670 nan 0.72%
0 0 -420.8826 18 -417.9530 Cuts:15 106 0.70%
0 0 -420.4920 20 -417.9530 Cuts:34 129 0.61%
0 0 -420.3695 18 -417.9530 Cuts:32 145 0.58%
0 0 -420.1925 21 -417.9530 Cuts:18 162 0.54%
0 0 -419.9225 23 -417.9530 Cuts:30 195 0.47%
0 0 -419.4450 22 -417.9530 Cuts:20 221 0.36%
0 0 -419.1821 20 -417.9530 Cuts:23 245 0.29%
0 0 -419.0937 20 -417.9530 Cuts:23 266 0.27%
0 0 -419.0604 23 -417.9530 Cuts:11 280 0.26%
0 0 -419.0350 20 -417.9530 Cuts:13 296 0.26%
0+ 0 nan nan -417.9530 -419.0350 nan 0.26%
0 0 -418.2536 6 -417.9530 -418.2536 360 0.07%
0 0 -418.0021 3 -417.9530 Cuts:14 375 0.01%
0 0 cutoff -417.9530 377 0.00% 0 0
CPXPARAM_MIP_Cuts_Gomory-LiftProj-MIRCut:Gomory 7
CPXPARAM_MIP_Cuts_Gomory-LiftProj-MIRCut:LiftProj 9
CPXPARAM_MIP_Cuts_Gomory-LiftProj-MIRCut:MIRCut 2
36
Node Left Objective IInf Best_Integer Best_Bound ItCnt Gap
0+ 0 nan nan 22941.7465 -2294.1747 nan 110.00%
0+ 0 nan nan -123.5349 -2294.1747 nan ---
0 0 -146.5944 12 -123.5349 -146.5944 96 18.67%
0 0 -145.3394 6 -123.5349 Cuts:21 109 17.65%
0+ 0 nan nan -134.7614 -145.3394 nan 7.85%
0 0 -144.4116 7 -134.7614 Cuts:6 127 7.16%
0+ 0 nan nan -139.5063 -144.4116 nan 3.52%
0 0 -144.3286 6 -139.5063 Cuts:13 137 3.46%
0 0 -144.0311 7 -139.5063 Cuts:11 153 3.24%
0 0 -143.7535 9 -139.5063 Cuts:8 167 3.04%
0 0 -143.4387 6 -139.5063 Cuts:11 192 2.82%
0 0 -143.4024 7 -139.5063 Cuts:5 200 2.79%
0 0 -143.3610 6 -139.5063 LiftProj:6 205 2.76%
0 0 -143.2690 7 -139.5063 Cuts:6 215 2.70%
0+ 0 nan nan -140.1787 -143.2690 nan 2.20%
0 0 -143.1242 6 -140.1787 LiftProj:4 227 2.10%
0 0 -143.0600 6 -140.1787 Cuts:5 236 2.06%
0 0 -143.0083 8 -140.1787 LiftProj:5 244 2.02%
0 0 -142.9075 6 -140.1787 LiftProj:6 252 1.95%
0 0 -142.6384 8 -140.1787 LiftProj:6 267 1.75%
0 0 -142.2521 8 -140.1787 Cuts:7 282 1.48%
0 0 -142.1871 9 -140.1787 LiftProj:5 291 1.43%
0 0 -142.0746 8 -140.1787 Cuts:5 298 1.35%
0 0 -141.8961 8 -140.1787 LiftProj:7 309 1.23%
0 0 -141.6993 8 -140.1787 Cuts:7 318 1.08%
0 0 -141.6227 7 -140.1787 LiftProj:6 325 1.03%
0 0 -141.6022 9 -140.1787 LiftProj:6 333 1.02%
0 0 -141.5750 9 -140.1787 Cuts:7 343 1.00%
0 2 -140.5258 2 -140.1787 -140.4942 343 0.23%
CPXPARAM_MIP_Cuts_Gomory-LiftProj-MIRCut:Gomory 4
CPXPARAM_MIP_Cuts_Gomory-LiftProj-MIRCut:LiftProj 13
CPXPARAM_MIP_Cuts_Gomory-LiftProj-MIRCut:MIRCut 0
37
Node Left Objective IInf Best_Integer Best_Bound ItCnt Gap
0+ 0 nan nan 22253.7712 -2225.3771 nan 110.00%
0+ 0 nan nan -192.7597 -2225.3771 nan ---
0 0 -583.6149 25 -192.7597 -583.6149 103 202.77%
0+ 0 nan nan -350.5396 -583.6149 nan 66.49%
0 0 -581.5539 28 -350.5396 Cuts:32 122 65.90%
0 0 -579.7029 29 -350.5396 Cuts:32 154 65.37%
0+ 0 nan nan -355.5276 -579.7029 nan 63.05%
0 0 -579.1219 28 -355.5276 Cuts:32 177 62.89%
0 0 -578.6129 31 -355.5276 Cuts:32 202 62.75%
0 0 -578.0577 31 -355.5276 Cuts:33 243 62.59%
0 0 -577.2885 32 -355.5276 Cuts:36 282 62.38%
0 0 -576.7115 31 -355.5276 Cuts:45 310 62.21%
0 0 -576.0832 32 -355.5276 Cuts:32 331 62.04%
0 0 -575.8628 32 -355.5276 Cuts:33 353 61.97%
0 0 -575.7432 35 -355.5276 Cuts:33 376 61.94%
0 0 -575.5074 33 -355.5276 Cuts:26 401 61.87%
0 0 -575.2906 34 -355.5276 Cuts:23 417 61.81%
0 0 -575.2039 35 -355.5276 Cuts:24 433 61.79%
0 0 -574.9547 31 -355.5276 Cuts:23 464 61.72%
0 0 -574.7641 32 -355.5276 Cuts:26 486 61.67%
0 0 -574.5733 35 -355.5276 Cuts:24 510 61.61%
0 0 -574.4596 34 -355.5276 Cuts:18 529 61.58%
0 0 -574.2970 35 -355.5276 Cuts:18 546 61.53%
0 0 -574.1588 33 -355.5276 Cuts:23 560 61.49%
0 0 -574.1295 34 -355.5276 Cuts:18 569 61.49%
0 0 -574.0674 33 -355.5276 Cuts:20 578 61.47%
0+ 0 nan nan -561.0740 -574.0674 nan 2.32%
0+ 0 nan nan -563.4634 -574.0674 nan 1.88%
0 2 -574.0674 33 -563.4634 -574.0326 578 1.88%
CPXPARAM_MIP_Cuts_Gomory-LiftProj-MIRCut:Gomory 7
CPXPARAM_MIP_Cuts_Gomory-LiftProj-MIRCut:LiftProj 26
CPXPARAM_MIP_Cuts_Gomory-LiftProj-MIRCut:MIRCut 1
38
Node Left Objective IInf Best_Integer Best_Bound ItCnt Gap
0+ 0 nan nan 19121.8104 -1912.4176 nan 110.00%
0+ 0 nan nan -95.8861 -1912.4176 nan ---
0 0 -109.3384 7 -95.8861 -109.3384 75 14.03%
0+ 0 nan nan -109.3384 -109.3384 nan 0.00%
0 0 cutoff -109.3384 -109.3384 75 0.00% 0
CPXPARAM_MIP_Cuts_Gomory-LiftProj-MIRCut:Gomory 0
CPXPARAM_MIP_Cuts_Gomory-LiftProj-MIRCut:LiftProj 0
CPXPARAM_MIP_Cuts_Gomory-LiftProj-MIRCut:MIRCut 0
39
Node Left Objective IInf Best_Integer Best_Bound ItCnt Gap
0+ 0 nan nan 22617.4474 -2261.8298 nan 110.00%
0+ 0 nan nan -361.4650 -2261.8298 nan 525.74%
0 0 -588.7435 24 -361.4650 -588.7435 97 62.88%
0+ 0 nan nan -434.4180 -588.7435 nan 35.52%
0 0 -586.1037 20 -434.4180 Cuts:34 128 34.92%
0 0 -584.5931 25 -434.4180 Cuts:30 153 34.57%
0 0 -582.7283 26 -434.4180 Cuts:39 193 34.14%
0 0 -582.4936 26 -434.4180 Cuts:28 218 34.09%
0 0 -582.2682 26 -434.4180 Cuts:35 250 34.03%
0 0 -582.1333 27 -434.4180 Cuts:31 266 34.00%
0 0 -581.9701 26 -434.4180 Cuts:29 297 33.97%
0 0 -581.7468 28 -434.4180 Cuts:21 318 33.91%
0 0 -581.6272 28 -434.4180 Cuts:33 337 33.89%
0 0 -581.1941 28 -434.4180 Cuts:21 360 33.79%
0 0 -580.9919 30 -434.4180 Cuts:29 381 33.74%
0 0 -580.8509 30 -434.4180 Cuts:18 405 33.71%
0 0 -580.7450 28 -434.4180 Cuts:41 427 33.68%
0 0 -580.6282 29 -434.4180 Cuts:16 450 33.66%
0 0 -580.5265 31 -434.4180 Cuts:13 473 33.63%
0 0 -580.4037 30 -434.4180 Cuts:27 494 33.60%
0 0 -580.3212 28 -434.4180 Cuts:22 510 33.59%
0 0 -580.2305 30 -434.4180 Cuts:19 529 33.57%
0+ 0 nan nan -504.8468 -580.2305 nan 14.93%
0+ 0 nan nan -575.7727 -580.2305 nan 0.77%
0 2 -580.2305 30 -575.7727 -580.2296 529 0.77%
CPXPARAM_MIP_Cuts_Gomory-LiftProj-MIRCut:Gomory 13
CPXPARAM_MIP_Cuts_Gomory-LiftProj-MIRCut:LiftProj 15
CPXPARAM_MIP_Cuts_Gomory-LiftProj-MIRCut:MIRCut 1
